10
1 0 3
2 0 1
2 1 1
3 0 2
3 1 1
3 2 4
4 0 1
4 1 2
4 2 2
4 3 4
5 0 2
5 1 2
5 2 1
5 3 1
5 4 3
6 0 4
6 1 2
6 2 1
6 3 1
6 4 3
6 5 1
7 0 2
7 1 4
7 2 3
7 3 2
7 4 4
7 5 1
7 6 4
8 0 3
8 1 2
8 2 4
8 3 1
8 4 3
8 5 4
8 6 4
8 7 1
9 0 3
9 1 1
9 2 1
9 3 3
9 4 2
9 5 1
9 6 4
9 7 2
9 8 4
